<number of tasks>
100

<cycle time>
1000

<order strength>
0.595


<task times>
1 73
2 36
3 31
4 171
5 145
6 136
7 538
8 598
9 190
10 399
11 136
12 43
13 46
14 265
15 139
16 78
17 84
18 32
19 68
20 154
21 146
22 78
23 150
24 54
25 26
26 216
27 188
28 212
29 178
30 231
31 276
32 270
33 547
34 235
35 153
36 547
37 128
38 294
39 643
40 451
41 386
42 265
43 374
44 209
45 300
46 290
47 207
48 225
49 117
50 445
51 64
52 128
53 226
54 30
55 58
56 316
57 139
58 326
59 148
60 133
61 84
62 140
63 354
64 47
65 164
66 420
67 195
68 73
69 295
70 165
71 187
72 208
73 229
74 68
75 307
76 150
77 78
78 526
79 110
80 150
81 113
82 272
83 272
84 138
85 145
86 279
87 76
88 192
89 150
90 360
91 154
92 117
93 232
94 84
95 148
96 144
97 348
98 491
99 292
100 412

<precedence relations>
1,75
2,38
3,23
4,23
5,84
6,7
6,8
6,9
6,10
6,11
6,12
6,13
6,14
6,15
7,75
8,38
9,38
10,38
11,23
12,23
13,23
14,84
15,16
15,17
15,18
15,19
15,20
15,21
16,38
17,23
18,23
19,23
20,62
21,22
21,24
21,25
22,75
23,28
23,29
23,30
23,31
23,32
23,33
23,34
23,35
23,36
23,37
24,100
25,26
25,27
25,47
26,38
27,38
28,62
29,39
29,40
29,50
30,48
30,54
30,55
31,38
32,39
32,65
33,38
33,39
34,39
34,41
35,38
36,62
37,63
37,84
38,42
38,43
38,44
38,45
38,48
39,62
40,46
41,47
41,53
42,51
42,74
44,61
44,85
45,49
45,50
45,53
45,56
46,49
46,54
46,56
48,49
48,51
49,57
49,58
50,54
50,55
51,52
51,53
51,56
52,75
53,62
54,62
55,62
56,62
57,61
57,62
57,63
57,64
58,59
58,60
58,61
58,62
59,84
60,84
61,84
62,66
62,67
62,68
62,69
62,70
62,71
62,72
62,73
63,74
64,65
65,75
66,75
67,84
68,94
69,76
69,93
70,76
70,77
71,100
72,93
73,85
73,93
73,99
75,78
75,79
75,80
75,81
75,82
76,83
78,84
81,98
82,93
82,95
83,85
84,86
84,87
84,88
84,89
84,90
84,91
84,92
84,93
86,98
87,96
87,97
87,98
89,99
90,99
92,95
92,96
93,94
96,100

<end>
